treewidth/data/McGeeGraph.gr
p tw 24 36
1 2
1 5
1 17
2 13
2 23
13 18
13 12
18 19
18 8
19 20
19 4
20 21
20 16
21 22
21 11
22 23
22 7
23 24
24 3
24 15
3 4
3 10
4 5
5 6
6 7
6 14
7 8
8 9
9 10
9 17
10 11
11 12
12 14
14 15
15 16
16 17
