treewidth/data/McGeeGraph.td
c width = 7, time = 0.224266
s td 10 8 24
b 1 15 16 17 19 20 21
b 2 6 10 13 15 17 19 21 23
b 3 4 6 10 13 15 17 19 23
b 4 1 2 4 5 6 13 17 23
b 5 3 4 10 15 23 24
b 6 6 8 10 13 17 19 21 23
b 7 6 7 8 21 22 23
b 8 8 9 10 17
b 9 8 13 18 19
b 10 6 10 11 12 13 14 15 21
3 4
3 5
2 3
6 7
6 8
6 9
2 6
2 10
1 2
